(set-logic QF_S)
(declare-fun _var_0xINPUT_104528_() String)
(declare-fun __woorpje_diseq_pref0_() String)
(declare-fun __woorpje_diseq_suf_l0_() String)
(declare-fun __woorpje_diseq_suf_r0_() String)
(assert (=(str.++ _var_0xINPUT_104528_  "")(str.++ __woorpje_diseq_pref0_  "E" __woorpje_diseq_suf_l0_  "")) )
(assert (=(str.++  "OagA6EWNQU" "")(str.++ __woorpje_diseq_pref0_  "U" __woorpje_diseq_suf_r0_  "")) )
(check-sat)
